LiTeLLab/finalCaseStudies/runningExample.output.txt
--- time 0 ---
bothReset
x = 0
Old_y = 0.1667
Old_x = 0.1667
otlLength = 0
y = 0
otlDelta = 0.1667
--- time 1 ---
*LOOP*
xGTy
x = 0.1667
Old_y = 0.1667
Old_x = 0.1667
otlLength = 2
y = 0
otlDelta = 1.3333
--- time 2 ---
bothReset
x = 0
Old_y = 1.3333
Old_x = 1.5
otlLength = 0
y = 0
otlDelta = 0.8333

 costHAvg 3
 costLSum 0

